c b=2,c=1121
p cnf 14 24
2 -4 0
1 2 -9 0
2 -10 0
2 -14 0
-2 4 0
1 -2 9 0
1 -2 10 0
-2 14 0
1 -3 0
1 -8 0
1 -11 0
1 -13 0
-1 2 9 0
2 -11 0
-1 -2 -9 0
-1 -2 11 0
-1 3 0
-1 8 0
-1 -10 0
-1 13 0
-5 0
-6 0
-7 0
-12 0
